6 6 104
4 1 1 3 1 5 2 5 3 3 23 23 43 43 71 71 101 
4 4 1 5 1 2 2 1 2 4 24 24 40 40 72 72 104 
3 6 1 6 2 3 2 14 36 36 64 64 104 
4 2 1 4 2 4 3 6 3 15 31 31 57 57 81 81 103 
10 1 1 2 1 2 1 3 1 3 1 1 2 2 2 2 2 3 2 3 2 0 3 3 9 9 15 15 18 18 21 23 26 27 31 31 35 40 43 43 47 
10 4 1 6 1 6 1 5 1 5 1 4 2 5 2 5 2 6 3 6 3 0 4 4 9 9 14 14 18 18 22 24 28 36 40 40 43 60 64 64 67 
